
;this file is automatically generated: Fri Jan 03 16:26:56 GMT 2020

;declarations generated

(declare-fun oclExcludes ( Int Int) Bool)
(declare-fun class3_Class3IntAttr1 ( Int) Int)
(declare-fun Cardinality ( Int) Int)
(declare-fun type_e004b21e_2446_4d4a_942e_96bd0f4cfc5b_Class3 ( Int) Bool)
(declare-fun obj_38590161_613d_4957_b3e1_0eec2eaa2baa ( Int) Int)
(declare-fun oclSelect ( Int Bool) Int)
(declare-fun Enum0 ( Int) Int)
(declare-fun Enum1 ( Int) Int)
(declare-fun Enum2 ( Int) Int)
(declare-fun container_ ( Int) Int)
(declare-fun oclIncludes ( Int Int) Bool)
(declare-fun ObjAt ( Int Int) Int)

;formula(s) generated
(assert (forall ((p Int)) (=> ( type_e004b21e_2446_4d4a_942e_96bd0f4cfc5b_Class3 p )  (and (>= ( Enum2 ( obj_38590161_613d_4957_b3e1_0eec2eaa2baa p )  )  0) (<= ( Enum2 ( obj_38590161_613d_4957_b3e1_0eec2eaa2baa p )  )  6)))))
(assert (! (or (forall ((v Int)) (=> ( type_e004b21e_2446_4d4a_942e_96bd0f4cfc5b_Class3 v )  (= ( class3_Class3IntAttr1 ( obj_38590161_613d_4957_b3e1_0eec2eaa2baa v )  )  1))) (forall ((v Int)) (=> ( type_e004b21e_2446_4d4a_942e_96bd0f4cfc5b_Class3 v )  (<= ( class3_Class3IntAttr1 ( obj_38590161_613d_4957_b3e1_0eec2eaa2baa v )  )  4)))):named l0))
(assert (! (forall ((v Int)) (=> ( type_e004b21e_2446_4d4a_942e_96bd0f4cfc5b_Class3 v )  (and (= ( Enum2 ( obj_38590161_613d_4957_b3e1_0eec2eaa2baa v )  )  3) (and (forall ((v Int)) (=> ( type_e004b21e_2446_4d4a_942e_96bd0f4cfc5b_Class3 v )  (<= ( class3_Class3IntAttr1 ( obj_38590161_613d_4957_b3e1_0eec2eaa2baa v )  )  16))) (forall ((v Int)) (=> ( type_e004b21e_2446_4d4a_942e_96bd0f4cfc5b_Class3 v )  (< ( class3_Class3IntAttr1 ( obj_38590161_613d_4957_b3e1_0eec2eaa2baa v )  )  8))))))):named l1))
(assert (exists ((o Int)) ( type_e004b21e_2446_4d4a_942e_96bd0f4cfc5b_Class3 ( obj_38590161_613d_4957_b3e1_0eec2eaa2baa o )  ) ))

 ;end of formula 